robust/generate/spp_dkp_Lefebvre_et_al_2026/src/shortest_path_9_6.kp
48
259

[0.08 3.98 1.27 1.34 3.54 1.45 3.86 2.0 2.45 1.59 0.5 0.63 1.99 3.27 2.05 2.65 1.5 2.03 0.84 1.83 0.59 0.17 0.37 0.95 2.43 2.93 2.63 2.57 1.49 1.7 1.79 3.03 0.65 3.52 0.17 2.74 0.68 3.45 1.17 3.45 1.28 2.91 4.24 4.1 0.74 1.51 0.4 3.09 3.04 4.06 1.37 0.81 0.16 1.65 4.3 2.59 3.97 2.31]

[51 25 23 10 33 67 78 75 83 33 49 92 36 9 83 63 48 74 13 86 27 42 22 74 83 26 11 21 44 78 8 31 92 89 87 45 92 10 77 21 24 89 59 82 3 71 10 39 76 80 99 18 21 3 55 7 81 25]
